************************************************************************
file with basedata            : mm46_.bas
initial value random generator: 1278534540
************************************************************************
projects                      :  1
jobs (incl. supersource/sink ):  12
horizon                       :  82
RESOURCES
  - renewable                 :  2   R
  - nonrenewable              :  2   N
  - doubly constrained        :  0   D
************************************************************************
PROJECT INFORMATION:
pronr.  #jobs rel.date duedate tardcost  MPM-Time
    1     10      0       11        0       11
************************************************************************
PRECEDENCE RELATIONS:
jobnr.    #modes  #successors   successors
   0        1          3           1   2   3
   1        3          1          10
   2        3          3           6   7   8
   3        3          3           4   7  10
   4        3          1           5
   5        3          2           8   9
   6        3          1          10
   7        3          1           9
   8        3          1          11
   9        3          1          11
  10        3          1          11
  11        1          0        
************************************************************************
REQUESTS/DURATIONS:
jobnr. mode duration  R 1  R 2  R 3  R 4  E(W 1)  E(W 2)
------------------------------------------------------------------------
  0      1     0       0    0    0    0     0       0
  1      1     6       6    3    7    6    54      78
  2      1     4       5    4    7    3    36      40
  3      1     1       9    7    8    7    16      15
  4      1     4       8    5    4    7    52      44
  5      1     2       8    8    7    3    32      20
  6      1     2       7    8    5    2    30      14
  7      1     1       7    4    8    8    11      16
  8      1     4       6    8    5    6    56      44
  9      1     3       9    9    8    5    54      39
 10      1     3       9    7    7    4    48      33
 11      1     0       0    0    0    0     0       0
************************************************************************
RESOURCEAVAILABILITIES:
  R 1  R 2
   35   98
************************************************************************
RESOURCE LIMITS:
jobnr.  l(R 1)  u(R 1)  l(R 2)  u(R 2)
------------------------------------------------------------------------
  0        0       0       0       0
  1        5       9       7      13
  2        5       9       6      10
  3        9      16       8      15
  4        7      13       6      11
  5        8      16       6      10
  6        8      15       4       7
  7        6      11       8      16
  8        7      14       6      11
  9       10      18       7      13
 10        9      16       6      11
 11        0       0       0       0
************************************************************************
SCENARIOS:
------------------------------------------------------------------------
RESOURCE k = 1
s = 1: (0, 57, 32, 10, 55, 36, 21, 16, 33, 43, 35, 0)
s = 2: (0, 54, 31, 11, 37, 52, 23, 17, 74, 33, 47, 0)
s = 3: (0, 44, 29, 15, 77, 40, 41, 7, 80, 67, 39, 0)
s = 4: (0, 59, 36, 20, 50, 22, 34, 10, 50, 31, 45, 0)
s = 5: (0, 68, 31, 15, 48, 25, 32, 10, 32, 79, 61, 0)
s = 6: (0, 68, 24, 12, 65, 23, 26, 16, 34, 50, 35, 0)
s = 7: (0, 75, 26, 13, 51, 44, 32, 14, 48, 68, 45, 0)
s = 8: (0, 65, 30, 16, 63, 24, 32, 13, 75, 36, 50, 0)
s = 9: (0, 50, 26, 20, 33, 19, 36, 13, 42, 64, 36, 0)
s = 10: (0, 48, 47, 9, 35, 42, 34, 10, 42, 55, 31, 0)
s = 11: (0, 30, 26, 15, 46, 24, 24, 17, 84, 34, 52, 0)
s = 12: (0, 44, 44, 16, 46, 33, 46, 8, 44, 39, 35, 0)
s = 13: (0, 39, 41, 16, 68, 23, 19, 13, 76, 47, 46, 0)
s = 14: (0, 54, 41, 10, 53, 45, 28, 12, 72, 43, 63, 0)
s = 15: (0, 45, 51, 14, 61, 24, 40, 10, 50, 46, 64, 0)
s = 16: (0, 75, 35, 22, 93, 39, 29, 8, 84, 53, 34, 0)
s = 17: (0, 47, 26, 16, 36, 32, 36, 11, 61, 56, 70, 0)
s = 18: (0, 56, 22, 14, 45, 40, 45, 12, 36, 42, 38, 0)
s = 19: (0, 59, 32, 17, 72, 25, 46, 7, 66, 89, 29, 0)
s = 20: (0, 65, 24, 10, 54, 21, 21, 13, 33, 65, 74, 0)
s = 21: (0, 54, 40, 10, 40, 40, 36, 8, 54, 36, 29, 0)
s = 22: (0, 50, 38, 12, 41, 56, 24, 8, 48, 66, 87, 0)
s = 23: (0, 42, 58, 17, 57, 21, 16, 9, 67, 64, 30, 0)
s = 24: (0, 64, 34, 23, 38, 53, 30, 10, 60, 37, 56, 0)
s = 25: (0, 31, 38, 10, 60, 28, 52, 14, 88, 54, 49, 0)
s = 26: (0, 41, 27, 10, 74, 28, 26, 8, 40, 65, 43, 0)
s = 27: (0, 53, 45, 15, 78, 43, 32, 12, 37, 33, 42, 0)
s = 28: (0, 47, 37, 13, 33, 37, 41, 11, 49, 76, 51, 0)
s = 29: (0, 44, 32, 15, 59, 32, 39, 9, 54, 48, 35, 0)
s = 30: (0, 65, 41, 12, 59, 33, 23, 10, 42, 62, 82, 0)
s = 31: (0, 37, 42, 9, 64, 61, 33, 10, 44, 86, 37, 0)
s = 32: (0, 58, 28, 21, 41, 31, 33, 8, 37, 37, 38, 0)
s = 33: (0, 62, 39, 21, 60, 32, 29, 8, 55, 78, 81, 0)
s = 34: (0, 63, 24, 23, 68, 29, 34, 10, 43, 56, 29, 0)
s = 35: (0, 46, 32, 12, 29, 54, 46, 15, 57, 52, 65, 0)
s = 36: (0, 35, 41, 16, 60, 40, 37, 9, 60, 31, 37, 0)
s = 37: (0, 52, 51, 16, 46, 31, 34, 9, 44, 42, 36, 0)
s = 38: (0, 42, 31, 22, 70, 32, 22, 11, 44, 50, 54, 0)
s = 39: (0, 50, 25, 19, 60, 29, 50, 11, 43, 51, 39, 0)
s = 40: (0, 56, 29, 12, 44, 37, 22, 18, 60, 42, 36, 0)
s = 41: (0, 54, 43, 21, 62, 20, 19, 10, 62, 37, 40, 0)
s = 42: (0, 38, 43, 19, 59, 26, 29, 11, 44, 53, 43, 0)
s = 43: (0, 64, 54, 18, 48, 29, 49, 10, 42, 46, 45, 0)
s = 44: (0, 33, 21, 18, 42, 36, 27, 12, 45, 64, 53, 0)
s = 45: (0, 65, 34, 14, 56, 25, 29, 19, 70, 45, 61, 0)
s = 46: (0, 39, 31, 22, 88, 44, 35, 17, 45, 32, 53, 0)
s = 47: (0, 37, 25, 18, 49, 43, 22, 11, 68, 76, 63, 0)
s = 48: (0, 59, 24, 17, 52, 31, 25, 12, 50, 72, 68, 0)
s = 49: (0, 45, 44, 13, 41, 50, 26, 16, 33, 34, 41, 0)
s = 50: (0, 63, 41, 22, 58, 42, 34, 10, 43, 86, 44, 0)
s = 51: (0, 32, 44, 13, 62, 31, 38, 14, 46, 72, 84, 0)
s = 52: (0, 60, 34, 12, 57, 24, 39, 7, 48, 64, 49, 0)
s = 53: (0, 99, 37, 21, 36, 29, 32, 8, 77, 34, 48, 0)
s = 54: (0, 59, 25, 16, 55, 44, 22, 14, 43, 53, 57, 0)
s = 55: (0, 94, 25, 19, 78, 39, 32, 7, 54, 81, 65, 0)
s = 56: (0, 66, 30, 22, 64, 25, 34, 11, 75, 69, 32, 0)
s = 57: (0, 53, 51, 13, 46, 18, 38, 14, 38, 51, 34, 0)
s = 58: (0, 46, 37, 21, 72, 27, 18, 11, 39, 66, 42, 0)
s = 59: (0, 41, 31, 18, 54, 28, 23, 12, 53, 58, 68, 0)
s = 60: (0, 89, 38, 13, 58, 19, 20, 8, 54, 31, 27, 0)
s = 61: (0, 68, 43, 18, 39, 57, 24, 10, 77, 57, 56, 0)
s = 62: (0, 45, 41, 17, 53, 27, 26, 12, 37, 37, 55, 0)
s = 63: (0, 52, 40, 12, 62, 40, 18, 14, 55, 61, 34, 0)
s = 64: (0, 50, 47, 13, 39, 23, 27, 15, 51, 65, 27, 0)
s = 65: (0, 46, 54, 11, 76, 17, 24, 16, 38, 48, 56, 0)
s = 66: (0, 40, 44, 18, 40, 36, 52, 8, 54, 38, 54, 0)
s = 67: (0, 61, 45, 17, 55, 29, 37, 17, 81, 52, 28, 0)
s = 68: (0, 37, 29, 16, 61, 37, 31, 8, 90, 56, 49, 0)
s = 69: (0, 35, 22, 10, 38, 24, 29, 18, 63, 51, 57, 0)
s = 70: (0, 79, 48, 11, 59, 26, 29, 15, 62, 38, 61, 0)
s = 71: (0, 56, 23, 21, 60, 54, 33, 8, 56, 44, 50, 0)
s = 72: (0, 73, 24, 9, 43, 33, 33, 8, 35, 36, 63, 0)
s = 73: (0, 64, 40, 11, 37, 34, 39, 11, 83, 48, 30, 0)
s = 74: (0, 42, 34, 21, 69, 24, 32, 13, 41, 66, 56, 0)
s = 75: (0, 40, 33, 21, 97, 29, 33, 17, 70, 75, 33, 0)
s = 76: (0, 41, 39, 13, 64, 35, 23, 10, 54, 86, 34, 0)
s = 77: (0, 40, 42, 11, 45, 28, 19, 7, 48, 89, 38, 0)
s = 78: (0, 54, 50, 21, 70, 27, 37, 8, 66, 39, 41, 0)
s = 79: (0, 48, 44, 14, 38, 32, 34, 11, 91, 39, 29, 0)
s = 80: (0, 28, 31, 17, 56, 41, 24, 9, 40, 41, 52, 0)
s = 81: (0, 83, 37, 14, 54, 24, 20, 7, 50, 34, 55, 0)
s = 82: (0, 39, 28, 12, 50, 33, 34, 7, 65, 43, 68, 0)
s = 83: (0, 34, 33, 18, 40, 22, 19, 14, 42, 80, 42, 0)
s = 84: (0, 88, 34, 19, 49, 28, 52, 20, 43, 58, 35, 0)
s = 85: (0, 45, 38, 17, 34, 26, 23, 10, 80, 64, 34, 0)
s = 86: (0, 52, 43, 15, 49, 63, 34, 11, 59, 57, 47, 0)
s = 87: (0, 59, 26, 20, 43, 30, 23, 7, 36, 56, 69, 0)
s = 88: (0, 41, 24, 12, 33, 43, 39, 11, 60, 60, 60, 0)
s = 89: (0, 59, 37, 14, 57, 26, 20, 16, 56, 49, 65, 0)
s = 90: (0, 79, 28, 23, 31, 24, 25, 11, 57, 64, 60, 0)
s = 91: (0, 40, 20, 12, 41, 28, 43, 8, 56, 45, 62, 0)
s = 92: (0, 59, 43, 15, 62, 27, 20, 9, 59, 53, 31, 0)
s = 93: (0, 33, 54, 19, 32, 34, 42, 13, 64, 42, 44, 0)
s = 94: (0, 67, 28, 29, 42, 43, 23, 7, 77, 38, 31, 0)
s = 95: (0, 46, 24, 17, 49, 25, 32, 10, 39, 53, 31, 0)
s = 96: (0, 60, 41, 21, 75, 35, 31, 11, 95, 68, 34, 0)
s = 97: (0, 36, 60, 14, 55, 25, 18, 10, 53, 54, 44, 0)
s = 98: (0, 41, 45, 18, 60, 30, 20, 8, 73, 74, 46, 0)
s = 99: (0, 64, 38, 18, 40, 21, 38, 10, 48, 42, 49, 0)
s = 100: (0, 52, 33, 18, 72, 30, 35, 13, 40, 51, 67, 0)
s = 101: (0, 38, 53, 17, 68, 35, 40, 10, 39, 63, 30, 0)
s = 102: (0, 53, 33, 21, 58, 29, 43, 14, 76, 42, 38, 0)
s = 103: (0, 38, 23, 19, 79, 40, 25, 9, 54, 50, 29, 0)
s = 104: (0, 55, 26, 18, 37, 31, 24, 10, 75, 32, 71, 0)
s = 105: (0, 43, 26, 17, 43, 19, 35, 10, 39, 104, 44, 0)
s = 106: (0, 64, 30, 14, 42, 35, 32, 14, 63, 62, 31, 0)
s = 107: (0, 40, 20, 20, 68, 30, 30, 10, 52, 43, 38, 0)
s = 108: (0, 51, 29, 15, 39, 27, 26, 11, 48, 62, 68, 0)
s = 109: (0, 30, 46, 11, 47, 42, 25, 11, 60, 42, 55, 0)
s = 110: (0, 65, 39, 23, 46, 39, 27, 14, 39, 32, 39, 0)
s = 111: (0, 73, 54, 18, 42, 28, 37, 8, 57, 39, 49, 0)
s = 112: (0, 44, 24, 13, 37, 18, 17, 8, 57, 68, 54, 0)
s = 113: (0, 56, 24, 23, 43, 27, 37, 12, 63, 52, 45, 0)
s = 114: (0, 71, 52, 26, 48, 29, 28, 9, 47, 40, 61, 0)
s = 115: (0, 67, 42, 11, 60, 35, 25, 12, 39, 38, 41, 0)
s = 116: (0, 46, 68, 17, 86, 27, 31, 10, 54, 52, 55, 0)
s = 117: (0, 37, 46, 10, 57, 18, 20, 10, 58, 71, 28, 0)
s = 118: (0, 45, 21, 18, 46, 42, 48, 14, 72, 67, 27, 0)
s = 119: (0, 88, 45, 20, 51, 28, 21, 13, 75, 55, 45, 0)
s = 120: (0, 46, 65, 15, 43, 34, 33, 18, 48, 47, 77, 0)
s = 121: (0, 56, 44, 11, 55, 47, 35, 17, 62, 82, 60, 0)
s = 122: (0, 35, 65, 13, 38, 51, 31, 20, 55, 68, 41, 0)
s = 123: (0, 29, 33, 23, 78, 32, 34, 7, 35, 61, 34, 0)
s = 124: (0, 47, 56, 20, 42, 54, 34, 10, 41, 68, 44, 0)
s = 125: (0, 72, 43, 15, 59, 27, 35, 14, 54, 67, 35, 0)
s = 126: (0, 51, 29, 21, 48, 19, 23, 13, 40, 45, 54, 0)
s = 127: (0, 32, 20, 21, 63, 32, 29, 14, 41, 99, 33, 0)
s = 128: (0, 73, 28, 13, 82, 26, 29, 16, 34, 33, 34, 0)
s = 129: (0, 44, 46, 20, 71, 46, 30, 15, 100, 73, 29, 0)
s = 130: (0, 62, 41, 15, 44, 56, 26, 10, 38, 45, 42, 0)
s = 131: (0, 54, 55, 9, 30, 46, 24, 16, 41, 58, 71, 0)
s = 132: (0, 46, 50, 11, 64, 22, 21, 10, 55, 56, 50, 0)
s = 133: (0, 56, 42, 10, 54, 35, 24, 14, 97, 52, 40, 0)
s = 134: (0, 61, 33, 22, 54, 32, 18, 11, 67, 41, 61, 0)
s = 135: (0, 42, 29, 24, 52, 17, 27, 13, 55, 65, 57, 0)
s = 136: (0, 65, 42, 13, 56, 24, 39, 10, 60, 34, 56, 0)
s = 137: (0, 46, 34, 19, 64, 26, 28, 7, 41, 80, 59, 0)
s = 138: (0, 48, 24, 20, 43, 49, 25, 14, 79, 61, 50, 0)
s = 139: (0, 42, 35, 16, 38, 22, 19, 12, 37, 49, 48, 0)
s = 140: (0, 47, 25, 21, 60, 31, 21, 10, 57, 46, 60, 0)
s = 141: (0, 92, 29, 14, 33, 31, 32, 7, 64, 36, 33, 0)
s = 142: (0, 36, 43, 15, 52, 38, 23, 16, 73, 60, 46, 0)
s = 143: (0, 43, 46, 18, 28, 39, 24, 11, 47, 46, 35, 0)
s = 144: (0, 58, 40, 14, 50, 52, 20, 17, 55, 69, 41, 0)
s = 145: (0, 33, 47, 17, 36, 21, 25, 14, 61, 51, 34, 0)
s = 146: (0, 61, 31, 12, 68, 40, 22, 13, 99, 72, 65, 0)
s = 147: (0, 42, 37, 24, 30, 28, 34, 9, 80, 38, 32, 0)
s = 148: (0, 53, 25, 12, 30, 29, 30, 10, 61, 83, 36, 0)
s = 149: (0, 58, 32, 23, 47, 29, 37, 11, 37, 47, 52, 0)
s = 150: (0, 71, 25, 28, 55, 23, 37, 11, 66, 42, 41, 0)
s = 151: (0, 59, 40, 10, 60, 40, 30, 13, 60, 48, 71, 0)
s = 152: (0, 52, 34, 15, 65, 33, 46, 9, 56, 34, 28, 0)
s = 153: (0, 50, 61, 17, 52, 40, 42, 9, 49, 55, 42, 0)
s = 154: (0, 63, 42, 16, 60, 38, 31, 8, 57, 83, 46, 0)
s = 155: (0, 71, 44, 16, 58, 23, 21, 12, 33, 88, 37, 0)
s = 156: (0, 42, 25, 15, 65, 24, 34, 11, 66, 49, 35, 0)
s = 157: (0, 75, 29, 11, 40, 41, 21, 10, 91, 44, 86, 0)
s = 158: (0, 81, 28, 14, 56, 27, 36, 8, 69, 76, 34, 0)
s = 159: (0, 40, 47, 19, 56, 44, 25, 7, 37, 50, 39, 0)
s = 160: (0, 44, 41, 18, 79, 19, 35, 17, 58, 62, 28, 0)
s = 161: (0, 60, 25, 20, 82, 37, 44, 13, 47, 38, 44, 0)
s = 162: (0, 52, 29, 20, 64, 33, 20, 9, 42, 49, 39, 0)
s = 163: (0, 54, 32, 12, 40, 43, 28, 13, 70, 43, 36, 0)
s = 164: (0, 48, 44, 14, 73, 43, 33, 17, 59, 67, 38, 0)
s = 165: (0, 51, 39, 16, 68, 32, 28, 22, 41, 43, 34, 0)
s = 166: (0, 88, 25, 13, 37, 30, 24, 11, 96, 31, 31, 0)
s = 167: (0, 76, 29, 24, 35, 50, 21, 14, 38, 51, 38, 0)
s = 168: (0, 72, 37, 18, 54, 33, 27, 11, 82, 29, 42, 0)
s = 169: (0, 37, 41, 16, 35, 25, 46, 8, 46, 52, 57, 0)
s = 170: (0, 58, 56, 17, 61, 28, 28, 10, 51, 38, 45, 0)
s = 171: (0, 57, 34, 19, 56, 33, 21, 14, 49, 64, 30, 0)
s = 172: (0, 54, 66, 18, 59, 26, 22, 13, 41, 38, 48, 0)
s = 173: (0, 60, 26, 16, 76, 35, 55, 11, 99, 69, 39, 0)
s = 174: (0, 33, 54, 13, 39, 28, 37, 9, 59, 61, 63, 0)
s = 175: (0, 41, 20, 12, 73, 45, 23, 9, 41, 46, 54, 0)
s = 176: (0, 35, 35, 15, 35, 44, 50, 9, 38, 39, 42, 0)
s = 177: (0, 32, 53, 23, 95, 49, 18, 13, 41, 38, 66, 0)
s = 178: (0, 36, 29, 11, 53, 28, 30, 14, 81, 42, 35, 0)
s = 179: (0, 49, 28, 20, 76, 18, 37, 8, 56, 36, 50, 0)
s = 180: (0, 61, 21, 26, 33, 23, 29, 11, 62, 44, 42, 0)
s = 181: (0, 39, 42, 17, 45, 18, 25, 14, 37, 48, 33, 0)
s = 182: (0, 52, 26, 23, 60, 30, 30, 13, 78, 43, 53, 0)
s = 183: (0, 84, 26, 11, 55, 44, 29, 8, 73, 68, 46, 0)
s = 184: (0, 69, 35, 16, 54, 47, 21, 20, 78, 54, 32, 0)
s = 185: (0, 59, 37, 14, 36, 44, 29, 14, 75, 51, 49, 0)
s = 186: (0, 41, 30, 20, 65, 35, 19, 17, 67, 68, 53, 0)
s = 187: (0, 52, 30, 16, 65, 33, 39, 13, 52, 68, 54, 0)
s = 188: (0, 53, 55, 15, 51, 36, 29, 7, 73, 52, 44, 0)
s = 189: (0, 49, 23, 23, 36, 39, 26, 12, 59, 62, 76, 0)
s = 190: (0, 92, 33, 16, 53, 24, 23, 12, 65, 43, 51, 0)
s = 191: (0, 43, 30, 11, 49, 31, 23, 12, 42, 66, 39, 0)
s = 192: (0, 67, 30, 18, 75, 32, 20, 9, 51, 50, 42, 0)
s = 193: (0, 33, 28, 15, 51, 50, 24, 8, 81, 45, 37, 0)
s = 194: (0, 74, 33, 12, 54, 37, 29, 11, 50, 46, 51, 0)
s = 195: (0, 48, 29, 11, 44, 53, 27, 9, 40, 39, 46, 0)
s = 196: (0, 62, 20, 16, 30, 33, 40, 11, 38, 70, 29, 0)
s = 197: (0, 58, 21, 25, 75, 34, 26, 8, 45, 87, 35, 0)
s = 198: (0, 77, 45, 16, 48, 37, 32, 12, 61, 52, 31, 0)
s = 199: (0, 71, 38, 15, 48, 21, 30, 12, 90, 58, 78, 0)
s = 200: (0, 34, 35, 14, 44, 29, 26, 6, 35, 54, 37, 0)
------------------------------------------------------------------------
RESOURCE k = 2
s = 1: (0, 82, 36, 9, 46, 22, 10, 23, 26, 31, 24, 0)
s = 2: (0, 78, 35, 10, 31, 32, 11, 25, 58, 24, 32, 0)
s = 3: (0, 64, 32, 14, 65, 25, 19, 10, 63, 48, 27, 0)
s = 4: (0, 86, 40, 19, 42, 14, 16, 14, 40, 23, 31, 0)
s = 5: (0, 98, 35, 14, 40, 16, 15, 14, 25, 58, 42, 0)
s = 6: (0, 98, 27, 11, 55, 15, 13, 23, 27, 37, 24, 0)
s = 7: (0, 108, 29, 12, 43, 28, 15, 19, 38, 49, 31, 0)
s = 8: (0, 94, 33, 15, 54, 15, 15, 18, 59, 26, 34, 0)
s = 9: (0, 72, 28, 19, 28, 12, 17, 19, 33, 46, 25, 0)
s = 10: (0, 69, 52, 9, 29, 26, 16, 15, 33, 40, 21, 0)
s = 11: (0, 42, 29, 14, 39, 15, 11, 25, 66, 25, 36, 0)
s = 12: (0, 64, 49, 15, 39, 21, 22, 11, 34, 29, 24, 0)
s = 13: (0, 56, 45, 15, 58, 14, 9, 18, 60, 34, 32, 0)
s = 14: (0, 78, 46, 10, 45, 28, 14, 18, 57, 31, 44, 0)
s = 15: (0, 64, 56, 13, 52, 15, 19, 14, 39, 33, 44, 0)
s = 16: (0, 108, 39, 20, 78, 25, 14, 11, 66, 38, 24, 0)
s = 17: (0, 68, 28, 15, 31, 20, 17, 15, 48, 41, 48, 0)
s = 18: (0, 80, 24, 14, 38, 25, 21, 18, 28, 30, 26, 0)
s = 19: (0, 85, 35, 16, 61, 16, 22, 10, 52, 64, 20, 0)
s = 20: (0, 94, 26, 9, 45, 13, 10, 18, 26, 47, 51, 0)
s = 21: (0, 78, 45, 9, 34, 25, 17, 11, 43, 26, 20, 0)
s = 22: (0, 72, 43, 11, 35, 35, 12, 11, 38, 48, 60, 0)
s = 23: (0, 61, 64, 16, 48, 14, 8, 13, 53, 47, 21, 0)
s = 24: (0, 92, 38, 22, 32, 34, 14, 14, 47, 27, 38, 0)
s = 25: (0, 45, 42, 9, 51, 18, 25, 20, 69, 39, 34, 0)
s = 26: (0, 59, 30, 9, 63, 18, 12, 12, 31, 47, 30, 0)
s = 27: (0, 76, 50, 14, 66, 27, 15, 17, 29, 24, 29, 0)
s = 28: (0, 68, 41, 12, 28, 23, 20, 16, 39, 55, 35, 0)
s = 29: (0, 64, 35, 14, 50, 20, 18, 13, 43, 34, 24, 0)
s = 30: (0, 93, 45, 11, 50, 21, 11, 14, 33, 45, 57, 0)
s = 31: (0, 53, 47, 8, 54, 38, 16, 14, 35, 62, 26, 0)
s = 32: (0, 83, 31, 20, 35, 20, 16, 11, 29, 27, 26, 0)
s = 33: (0, 89, 44, 20, 51, 20, 14, 12, 43, 57, 56, 0)
s = 34: (0, 91, 26, 22, 58, 18, 16, 15, 34, 40, 20, 0)
s = 35: (0, 66, 36, 12, 25, 34, 22, 21, 45, 38, 45, 0)
s = 36: (0, 51, 46, 15, 51, 25, 18, 13, 47, 23, 26, 0)
s = 37: (0, 74, 57, 15, 39, 20, 16, 13, 35, 31, 25, 0)
s = 38: (0, 61, 35, 20, 60, 20, 10, 15, 35, 36, 37, 0)
s = 39: (0, 71, 28, 18, 51, 19, 23, 16, 34, 37, 27, 0)
s = 40: (0, 81, 32, 11, 37, 23, 10, 26, 47, 30, 25, 0)
s = 41: (0, 78, 47, 19, 53, 13, 9, 14, 49, 27, 28, 0)
s = 42: (0, 55, 47, 18, 50, 17, 14, 16, 35, 38, 30, 0)
s = 43: (0, 92, 60, 17, 41, 18, 23, 14, 33, 33, 31, 0)
s = 44: (0, 48, 23, 17, 36, 22, 13, 17, 36, 47, 37, 0)
s = 45: (0, 94, 38, 13, 47, 16, 14, 28, 55, 33, 42, 0)
s = 46: (0, 56, 34, 21, 75, 27, 16, 24, 36, 23, 37, 0)
s = 47: (0, 53, 28, 17, 42, 27, 11, 16, 53, 55, 43, 0)
s = 48: (0, 86, 26, 16, 44, 20, 12, 18, 39, 52, 47, 0)
s = 49: (0, 65, 49, 12, 34, 32, 13, 22, 26, 25, 28, 0)
s = 50: (0, 91, 46, 20, 49, 26, 16, 15, 34, 62, 31, 0)
s = 51: (0, 45, 48, 13, 53, 20, 18, 20, 36, 52, 58, 0)
s = 52: (0, 87, 37, 11, 49, 15, 19, 10, 38, 47, 34, 0)
s = 53: (0, 143, 41, 20, 30, 18, 15, 11, 61, 25, 33, 0)
s = 54: (0, 85, 27, 15, 46, 28, 10, 20, 34, 39, 39, 0)
s = 55: (0, 135, 28, 18, 66, 25, 15, 10, 42, 58, 45, 0)
s = 56: (0, 95, 33, 21, 55, 16, 16, 16, 59, 50, 22, 0)
s = 57: (0, 77, 57, 12, 39, 11, 18, 20, 30, 37, 23, 0)
s = 58: (0, 66, 41, 20, 61, 17, 9, 16, 31, 48, 29, 0)
s = 59: (0, 59, 34, 17, 45, 18, 11, 17, 42, 42, 47, 0)
s = 60: (0, 129, 42, 13, 49, 12, 10, 12, 43, 23, 19, 0)
s = 61: (0, 98, 47, 17, 33, 36, 12, 14, 61, 41, 39, 0)
s = 62: (0, 64, 45, 16, 45, 17, 13, 18, 29, 27, 38, 0)
s = 63: (0, 75, 45, 12, 53, 25, 9, 21, 43, 44, 24, 0)
s = 64: (0, 73, 52, 12, 33, 14, 13, 21, 40, 47, 19, 0)
s = 65: (0, 66, 60, 10, 64, 11, 11, 23, 30, 35, 39, 0)
s = 66: (0, 58, 49, 17, 34, 23, 24, 11, 43, 28, 37, 0)
s = 67: (0, 88, 50, 16, 46, 18, 17, 25, 63, 38, 20, 0)
s = 68: (0, 54, 32, 15, 51, 23, 15, 12, 71, 40, 34, 0)
s = 69: (0, 50, 24, 10, 32, 15, 14, 25, 50, 37, 39, 0)
s = 70: (0, 113, 53, 11, 50, 16, 14, 22, 49, 28, 42, 0)
s = 71: (0, 81, 25, 20, 51, 34, 15, 12, 44, 32, 34, 0)
s = 72: (0, 105, 26, 8, 36, 21, 16, 12, 28, 26, 43, 0)
s = 73: (0, 92, 45, 10, 32, 21, 18, 15, 65, 35, 21, 0)
s = 74: (0, 60, 38, 20, 58, 15, 15, 19, 32, 48, 38, 0)
s = 75: (0, 58, 36, 20, 82, 19, 15, 24, 55, 54, 23, 0)
s = 76: (0, 59, 43, 12, 54, 22, 11, 14, 43, 62, 24, 0)
s = 77: (0, 58, 46, 10, 38, 18, 9, 10, 38, 64, 27, 0)
s = 78: (0, 78, 56, 20, 59, 17, 17, 11, 52, 28, 29, 0)
s = 79: (0, 69, 49, 13, 32, 20, 16, 15, 72, 28, 20, 0)
s = 80: (0, 41, 34, 16, 48, 26, 12, 13, 32, 30, 36, 0)
s = 81: (0, 120, 41, 13, 46, 15, 9, 10, 39, 25, 38, 0)
s = 82: (0, 57, 31, 11, 43, 21, 16, 10, 51, 31, 47, 0)
s = 83: (0, 49, 37, 16, 34, 14, 9, 20, 33, 58, 29, 0)
s = 84: (0, 127, 37, 18, 41, 18, 25, 29, 34, 42, 24, 0)
s = 85: (0, 65, 42, 16, 29, 16, 11, 14, 63, 47, 24, 0)
s = 86: (0, 75, 48, 14, 42, 40, 16, 16, 47, 41, 33, 0)
s = 87: (0, 85, 28, 19, 37, 19, 11, 10, 28, 41, 47, 0)
s = 88: (0, 59, 26, 11, 28, 27, 18, 16, 47, 43, 41, 0)
s = 89: (0, 86, 41, 13, 49, 16, 10, 24, 44, 35, 45, 0)
s = 90: (0, 114, 31, 21, 26, 15, 12, 15, 45, 47, 41, 0)
s = 91: (0, 57, 22, 11, 35, 18, 20, 11, 44, 33, 43, 0)
s = 92: (0, 85, 48, 14, 53, 17, 10, 12, 47, 38, 22, 0)
s = 93: (0, 48, 60, 18, 27, 21, 20, 18, 50, 31, 30, 0)
s = 94: (0, 96, 31, 27, 36, 27, 11, 9, 60, 28, 22, 0)
s = 95: (0, 67, 27, 16, 42, 16, 15, 15, 31, 39, 21, 0)
s = 96: (0, 86, 45, 20, 64, 22, 15, 16, 75, 49, 24, 0)
s = 97: (0, 52, 66, 13, 47, 16, 9, 14, 42, 39, 30, 0)
s = 98: (0, 60, 50, 17, 51, 19, 10, 11, 57, 53, 32, 0)
s = 99: (0, 92, 42, 17, 34, 14, 18, 14, 38, 30, 34, 0)
s = 100: (0, 75, 37, 17, 61, 19, 17, 19, 32, 37, 46, 0)
s = 101: (0, 55, 59, 16, 57, 22, 19, 15, 30, 46, 21, 0)
s = 102: (0, 76, 37, 20, 49, 19, 20, 21, 60, 31, 26, 0)
s = 103: (0, 54, 26, 18, 67, 25, 12, 12, 43, 36, 20, 0)
s = 104: (0, 79, 29, 16, 32, 19, 11, 14, 59, 23, 49, 0)
s = 105: (0, 62, 29, 16, 36, 12, 17, 14, 31, 75, 31, 0)
s = 106: (0, 92, 33, 13, 35, 22, 15, 20, 50, 45, 21, 0)
s = 107: (0, 57, 22, 19, 58, 19, 14, 14, 41, 31, 26, 0)
s = 108: (0, 73, 32, 14, 33, 17, 12, 16, 38, 45, 47, 0)
s = 109: (0, 43, 51, 11, 40, 26, 12, 15, 47, 31, 38, 0)
s = 110: (0, 93, 44, 22, 39, 25, 13, 21, 30, 23, 27, 0)
s = 111: (0, 105, 60, 17, 35, 18, 18, 11, 45, 28, 34, 0)
s = 112: (0, 63, 26, 12, 31, 11, 8, 11, 45, 49, 37, 0)
s = 113: (0, 80, 27, 21, 37, 17, 17, 17, 50, 38, 31, 0)
s = 114: (0, 102, 57, 24, 40, 18, 13, 12, 37, 29, 42, 0)
s = 115: (0, 96, 47, 10, 50, 22, 12, 17, 31, 28, 28, 0)
s = 116: (0, 66, 75, 16, 73, 17, 15, 15, 43, 38, 38, 0)
s = 117: (0, 54, 51, 10, 48, 11, 10, 15, 46, 52, 20, 0)
s = 118: (0, 65, 24, 17, 39, 27, 23, 20, 57, 49, 18, 0)
s = 119: (0, 126, 50, 18, 43, 18, 10, 19, 59, 40, 31, 0)
s = 120: (0, 66, 72, 14, 36, 21, 16, 25, 38, 34, 53, 0)
s = 121: (0, 81, 49, 10, 47, 30, 17, 24, 49, 59, 42, 0)
s = 122: (0, 50, 72, 12, 32, 32, 15, 29, 44, 49, 29, 0)
s = 123: (0, 41, 37, 22, 66, 20, 16, 10, 28, 44, 24, 0)
s = 124: (0, 68, 63, 19, 35, 34, 16, 15, 33, 49, 31, 0)
s = 125: (0, 104, 48, 14, 50, 17, 17, 21, 43, 49, 24, 0)
s = 126: (0, 73, 32, 20, 40, 12, 11, 19, 31, 33, 37, 0)
s = 127: (0, 46, 23, 20, 54, 20, 14, 21, 32, 72, 23, 0)
s = 128: (0, 105, 31, 13, 69, 16, 14, 23, 27, 24, 24, 0)
s = 129: (0, 63, 51, 18, 60, 29, 14, 21, 79, 53, 20, 0)
s = 130: (0, 89, 46, 14, 38, 35, 13, 14, 30, 32, 29, 0)
s = 131: (0, 78, 61, 9, 25, 29, 11, 23, 32, 42, 49, 0)
s = 132: (0, 66, 56, 10, 54, 14, 10, 14, 43, 41, 35, 0)
s = 133: (0, 81, 47, 9, 46, 22, 12, 20, 76, 38, 28, 0)
s = 134: (0, 88, 37, 20, 46, 20, 9, 15, 53, 30, 42, 0)
s = 135: (0, 60, 32, 23, 44, 11, 13, 19, 43, 47, 40, 0)
s = 136: (0, 94, 47, 12, 47, 15, 18, 15, 47, 25, 38, 0)
s = 137: (0, 66, 38, 18, 54, 16, 13, 10, 32, 58, 41, 0)
s = 138: (0, 70, 27, 18, 37, 31, 12, 20, 62, 44, 35, 0)
s = 139: (0, 60, 39, 15, 32, 14, 9, 17, 29, 36, 33, 0)
s = 140: (0, 67, 28, 20, 51, 20, 10, 15, 45, 33, 42, 0)
s = 141: (0, 133, 32, 13, 28, 20, 15, 10, 50, 26, 23, 0)
s = 142: (0, 52, 48, 14, 44, 24, 11, 23, 58, 43, 32, 0)
s = 143: (0, 63, 51, 17, 24, 25, 12, 16, 37, 33, 25, 0)
s = 144: (0, 83, 44, 13, 42, 33, 10, 25, 43, 50, 29, 0)
s = 145: (0, 48, 52, 16, 31, 13, 12, 20, 48, 37, 24, 0)
s = 146: (0, 88, 35, 11, 58, 25, 10, 19, 78, 52, 45, 0)
s = 147: (0, 60, 41, 23, 25, 17, 16, 13, 63, 28, 22, 0)
s = 148: (0, 76, 28, 12, 26, 18, 14, 15, 48, 60, 25, 0)
s = 149: (0, 83, 36, 22, 40, 18, 17, 16, 29, 34, 36, 0)
s = 150: (0, 102, 27, 26, 47, 15, 18, 16, 52, 31, 28, 0)
s = 151: (0, 85, 44, 9, 51, 25, 14, 19, 47, 35, 49, 0)
s = 152: (0, 75, 37, 14, 55, 21, 22, 13, 44, 25, 19, 0)
s = 153: (0, 73, 68, 16, 44, 25, 20, 14, 39, 40, 29, 0)
s = 154: (0, 90, 47, 15, 51, 24, 15, 11, 45, 60, 32, 0)
s = 155: (0, 102, 49, 15, 49, 14, 10, 18, 26, 64, 25, 0)
s = 156: (0, 61, 27, 15, 55, 15, 16, 16, 52, 35, 24, 0)
s = 157: (0, 108, 32, 11, 34, 26, 10, 14, 72, 32, 59, 0)
s = 158: (0, 116, 31, 14, 47, 17, 17, 11, 55, 55, 24, 0)
s = 159: (0, 57, 52, 17, 47, 28, 12, 10, 29, 36, 27, 0)
s = 160: (0, 63, 46, 17, 67, 12, 17, 24, 45, 45, 19, 0)
s = 161: (0, 86, 28, 19, 69, 23, 21, 19, 37, 28, 30, 0)
s = 162: (0, 75, 33, 18, 54, 21, 9, 13, 33, 36, 27, 0)
s = 163: (0, 77, 35, 11, 34, 27, 13, 18, 55, 31, 25, 0)
s = 164: (0, 70, 49, 13, 62, 27, 16, 24, 46, 48, 27, 0)
s = 165: (0, 74, 43, 15, 57, 20, 13, 32, 32, 32, 23, 0)
s = 166: (0, 127, 27, 12, 31, 19, 11, 15, 75, 22, 21, 0)
s = 167: (0, 110, 32, 23, 30, 32, 10, 20, 30, 37, 26, 0)
s = 168: (0, 103, 41, 17, 46, 21, 13, 16, 65, 21, 29, 0)
s = 169: (0, 54, 45, 15, 29, 16, 22, 12, 36, 38, 39, 0)
s = 170: (0, 84, 63, 16, 52, 18, 13, 15, 40, 28, 31, 0)
s = 171: (0, 82, 37, 18, 47, 21, 10, 20, 39, 46, 21, 0)
s = 172: (0, 78, 73, 17, 50, 16, 11, 19, 33, 27, 33, 0)
s = 173: (0, 87, 29, 15, 64, 22, 26, 16, 78, 50, 27, 0)
s = 174: (0, 47, 60, 12, 33, 18, 17, 13, 46, 44, 44, 0)
s = 175: (0, 59, 22, 11, 62, 28, 11, 14, 33, 33, 37, 0)
s = 176: (0, 50, 39, 14, 30, 28, 23, 14, 30, 28, 29, 0)
s = 177: (0, 46, 58, 22, 81, 31, 8, 19, 33, 28, 46, 0)
s = 178: (0, 52, 32, 11, 45, 18, 14, 20, 64, 30, 24, 0)
s = 179: (0, 71, 31, 19, 64, 11, 17, 11, 44, 26, 34, 0)
s = 180: (0, 88, 24, 24, 28, 15, 14, 16, 49, 32, 29, 0)
s = 181: (0, 55, 47, 16, 38, 11, 12, 20, 29, 35, 23, 0)
s = 182: (0, 74, 29, 22, 51, 19, 14, 19, 61, 31, 37, 0)
s = 183: (0, 121, 29, 10, 47, 28, 14, 12, 58, 49, 32, 0)
s = 184: (0, 99, 39, 15, 45, 30, 10, 29, 61, 39, 22, 0)
s = 185: (0, 85, 41, 13, 31, 28, 14, 20, 59, 37, 34, 0)
s = 186: (0, 58, 33, 18, 55, 22, 9, 24, 53, 49, 37, 0)
s = 187: (0, 75, 33, 15, 55, 21, 19, 18, 41, 49, 37, 0)
s = 188: (0, 77, 61, 14, 44, 23, 14, 11, 58, 37, 30, 0)
s = 189: (0, 71, 25, 21, 30, 25, 12, 17, 47, 45, 52, 0)
s = 190: (0, 133, 37, 15, 45, 15, 11, 17, 51, 31, 35, 0)
s = 191: (0, 62, 34, 11, 42, 20, 11, 18, 33, 48, 27, 0)
s = 192: (0, 97, 33, 17, 64, 20, 10, 12, 40, 36, 29, 0)
s = 193: (0, 47, 31, 14, 43, 31, 11, 11, 64, 33, 26, 0)
s = 194: (0, 107, 36, 11, 46, 23, 14, 16, 39, 33, 35, 0)
s = 195: (0, 69, 32, 10, 37, 33, 13, 13, 32, 28, 32, 0)
s = 196: (0, 89, 22, 15, 26, 21, 19, 15, 30, 51, 20, 0)
s = 197: (0, 84, 23, 23, 63, 22, 12, 12, 35, 63, 24, 0)
s = 198: (0, 111, 50, 15, 41, 23, 15, 17, 48, 38, 22, 0)
s = 199: (0, 103, 43, 14, 41, 13, 14, 17, 71, 42, 54, 0)
s = 200: (0, 48, 39, 13, 38, 19, 12, 9, 28, 39, 25, 0)
************************************************************************
ES/LS-VALUES:
jobnr.   ES(i)    LS(i)
------------------------------------------------------------------------
  0        0        0
  1        0       65
  2        0       64
  3        0       60
  4        1       62
  5        8       70
  6        7       72
  7        7       74
  8       12       74
  9       12       76
 10       11       76
 11       19       82
************************************************************************
BIG-M-VALUES:
M1 = 41, M2 = 242
************************************************************************
